NAME : census.pruned_local_4.tour
TYPE : TOUR
DIMENSION : 68
TOUR_SECTION
1
2
3
39
40
50
64
65
4
8
47
5
16
38
41
56
57
58
59
60
61
62
6
9
32
33
35
63
67
68
7
43
48
10
31
46
11
29
45
51
12
34
52
53
55
13
22
23
26
28
30
36
42
44
14
18
19
21
24
25
27
54
66
15
17
20
37
49
-1
EOF
